p cnf 31 27
-1 -2 -3 -4 30 -10 0 
-3 30 -10 0 
-5 31 -3 0 
-6 30 -10 0 
-7 30 -10 0 
-8 21 30 -10 0 
-9 23 30 -10 0 
-10 31 -3 0 
-11 31 -3 0 
-12 31 -3 0 
-13 31 -3 0 
-14 30 -10 0 
-15 -16 22 30 -10 0 
-3 -12 30 -10 0 
-17 -12 31 -3 0 
-1 -4 -12 31 -3 0 
-12 -18 31 -3 0 
-19 -20 31 -3 0 
-2 -21 8 -12 31 -3 0 
-22 16 30 -10 0 
-1 -23 9 30 -10 0 
-24 -8 21 30 -10 0 
-25 -23 9 30 -10 0 
-23 9 -26 30 -10 0 
-27 31 -3 0 
-28 -11 31 -3 0 
-29 31 -3 0 
